NAME : XML100_3155_26
DIMENSION : 101
NB_CLUSTERS : 10
CLUSTERING_ALG : KMedoids
CLUSTERING_PARAMS : k(9)
CLUSTERS
1 0
2 4 30 33 52 56 76 78 92
3 15 59 60 73 74 81 82 97
4 2 5 31 36 41 67 89
5 3 12 28 34 37 47 64 65 77 87 90
6 7 10 14 27 43 44 48 49 53 61 63 68 75 80 83 85 96 99
7 13 16 18 20 32 45 55 62 71 72 94 98
8 6 9 11 17 19 23 29 38 40 42 46 50 51 69 88 91
9 8 24 58 70 93 95 100
10 1 21 22 25 26 35 39 54 57 66 79 84 86
EOF